inputs/183.in
10
0 15 14 21 98 62 84 89 99 18 
15 0 86 8 69 47 91 70 84 22 
14 86 0 62 37 7 83 96 22 53 
21 8 62 0 2 37 26 13 22 6 
98 69 37 2 0 98 6 89 54 6 
62 47 7 37 98 0 67 46 81 82 
84 91 83 26 6 67 0 62 99 1 
89 70 96 13 89 46 62 0 23 4 
99 84 22 22 54 81 99 23 0 48 
18 22 53 6 6 82 1 4 48 0 
BBRBRBRRRB
