output/183.out
50 16 32 1 19 45 29 15 9 24 13 40 8 28 12 22 35 6 20 10 44 21 25 26 31 14 30 38 23 33 34 42 17 39 48 46 2 41 7 11 36 4 18 5 37 47 49 3 43 27 
